
Gurobi 12.0.0 (linux64, gurobi_cl) logging started Thu Jan  1 16:44:17 2026

Set parameter TokenServer to value "license1.computecanada.ca"
Set parameter LogFile to value "gurobi.log"
Using license file /cvmfs/restricted.computecanada.ca/config/licenses/gurobi/clusters/narval.lic

Gurobi 12.0.0 (linux64, gurobi_cl) logging started Thu Jan  1 17:04:22 2026

Set parameter TokenServer to value "license1.computecanada.ca"
Set parameter LogFile to value "gurobi.log"
Using license file /cvmfs/restricted.computecanada.ca/config/licenses/gurobi/clusters/narval.lic
